69
125
87	2
86	7
85	3
84	2
83	5
82	2
81	4
80	3
79	3
78	2
77	4
76	1
74	1
73	2
71	6
70	6
69	2
68	5
67	1
66	2
65	5
64	2
63	3
62	2
60	3
59	4
58	6
57	3
56	3
55	1
54	1
53	3
52	3
51	4
49	3
48	1
47	1
46	3
45	3
44	1
43	4
42	2
41	2
40	2
39	4
38	2
37	2
36	1
35	3
34	4
33	5
32	5
31	3
30	1
29	1
27	3
26	4
25	4
23	4
22	1
21	3
20	3
19	3
17	2
16	2
15	3
14	4
13	2
12	3
